p cnf 178 444
45 0
46 0
47 0
-48 0
-49 0
-50 0
-51 0
-52 0
-53 0
-54 0
-55 0
-56 0
-57 0
-58 0
-59 0
-60 0
-61 0
-62 0
-63 0
-64 0
-65 0
-66 0
-67 0
-68 0
-69 0
-70 0
-71 0
-72 0
-43 73 74 75 76 77 0
-73 -74 0
-73 -75 0
-73 -76 0
-73 -77 0
-74 -75 0
-74 -76 0
-74 -77 0
-75 -76 0
-75 -77 0
-76 -77 0
-43 78 79 80 81 82 0
-78 -79 0
-78 -80 0
-78 -81 0
-78 -82 0
-79 -80 0
-79 -81 0
-79 -82 0
-80 -81 0
-80 -82 0
-81 -82 0
-43 83 84 85 86 87 88 89 0
-83 -84 0
-83 -85 0
-83 -86 0
-83 -87 0
-83 -88 0
-83 -89 0
-84 -85 0
-84 -86 0
-84 -87 0
-84 -88 0
-84 -89 0
-85 -86 0
-85 -87 0
-85 -88 0
-85 -89 0
-86 -87 0
-86 -88 0
-86 -89 0
-87 -88 0
-87 -89 0
-88 -89 0
-43 -77 78 0
-43 -75 81 0
-43 -76 82 0
-43 -73 79 0
-43 -74 80 0
-43 77 75 76 73 74 0
-43 -77 -86 0
-43 -75 -83 0
-43 -75 -86 0
-43 -75 -85 0
-43 -75 -88 0
-43 -73 -83 0
-43 -73 -86 0
-43 -74 -83 0
-43 -74 -86 0
-43 -74 -88 0
-43 76 0
-43 84 0
-39 43 0
-43 39 0
-91 92 0
-90 -92 0
-48 93 0
48 -93 -43 82 0
48 -93 43 0
-49 94 0
49 -94 -43 79 0
49 -94 43 0
-62 95 0
62 -95 -43 -76 88 0
62 -95 -43 76 0
62 -95 43 0
-50 96 0
50 -96 -43 -76 84 0
50 -96 -43 76 0
50 -96 43 0
-51 97 0
51 -97 -43 -74 87 0
51 -97 -43 74 0
51 -97 43 0
-52 98 0
52 -98 -43 -76 89 0
52 -98 -43 76 0
52 -98 43 0
-63 99 0
63 -99 -43 78 0
63 -99 43 0
-53 100 0
53 -100 -43 -73 84 0
53 -100 -43 73 0
53 -100 43 0
-54 101 0
54 -101 -43 81 0
54 -101 43 0
-47 102 -43 -75 81 0
-47 102 -43 75 0
-47 102 43 0
47 -102 0
-3 103 -43 -76 82 0
-3 103 -43 76 0
-3 103 43 0
3 -103 0
-64 104 0
64 -104 -43 -75 87 0
64 -104 -43 75 0
64 -104 43 0
-55 105 0
55 -105 -43 76 0
55 -105 43 0
-56 106 0
56 -106 -43 -77 88 0
56 -106 -43 77 0
56 -106 43 0
-65 107 0
65 -107 -43 -76 85 0
65 -107 -43 76 0
65 -107 43 0
-66 108 0
66 -108 -43 -74 84 0
66 -108 -43 74 0
66 -108 43 0
-5 109 -43 -77 78 0
-5 109 -43 77 0
-5 109 43 0
5 -109 0
-67 110 0
67 -110 -43 -77 85 0
67 -110 -43 77 0
67 -110 43 0
-57 111 0
57 -111 -43 -77 89 0
57 -111 -43 77 0
57 -111 43 0
-46 112 -43 76 0
-46 112 43 0
46 -112 0
-68 113 0
68 -113 -43 -76 87 0
68 -113 -43 76 0
68 -113 43 0
-58 114 0
58 -114 -43 -76 83 0
58 -114 -43 76 0
58 -114 43 0
-45 115 -43 84 0
-45 115 43 0
45 -115 0
-59 116 0
59 -116 -43 80 0
59 -116 43 0
-7 117 0
7 -117 -43 -75 84 0
7 -117 -43 75 0
7 -117 43 0
-69 118 0
69 -118 -43 -77 87 0
69 -118 -43 77 0
69 -118 43 0
-60 119 0
60 -119 -43 -73 87 0
60 -119 -43 73 0
60 -119 43 0
-70 120 0
70 -120 -43 -77 84 0
70 -120 -43 77 0
70 -120 43 0
-4 121 -43 -73 79 0
-4 121 -43 73 0
-4 121 43 0
4 -121 0
-61 122 0
61 -122 -43 -74 89 0
61 -122 -43 74 0
61 -122 43 0
-71 123 0
71 -123 -43 -73 89 0
71 -123 -43 73 0
71 -123 43 0
-6 124 -43 -74 80 0
-6 124 -43 74 0
-6 124 43 0
6 -124 0
-72 125 0
72 -125 -43 -73 85 0
72 -125 -43 73 0
72 -125 43 0
-90 133 134 135 136 137 0
-133 -134 0
-133 -135 0
-133 -136 0
-133 -137 0
-134 -135 0
-134 -136 0
-134 -137 0
-135 -136 0
-135 -137 0
-136 -137 0
-90 138 139 140 141 142 143 144 0
-138 -139 0
-138 -140 0
-138 -141 0
-138 -142 0
-138 -143 0
-138 -144 0
-139 -140 0
-139 -141 0
-139 -142 0
-139 -143 0
-139 -144 0
-140 -141 0
-140 -142 0
-140 -143 0
-140 -144 0
-141 -142 0
-141 -143 0
-141 -144 0
-142 -143 0
-142 -144 0
-143 -144 0
-90 130 0
-91 101 0
-90 -91 0
-76 -126 105 0
-84 127 -115 0
-76 -83 -128 114 0
-76 -88 -128 95 0
-76 -84 -128 96 0
-74 -87 -128 97 0
-76 -89 -128 98 0
-73 -84 -128 100 0
-75 -84 -128 117 0
-77 -87 -128 118 0
-75 -87 -128 104 0
-73 -87 -128 119 0
-77 -88 -128 106 0
-77 -84 -128 120 0
-76 -85 -128 107 0
-74 -84 -128 108 0
-77 -85 -128 110 0
-74 -89 -128 122 0
-77 -89 -128 111 0
-76 -87 -128 113 0
-73 -89 -128 123 0
-73 -85 -128 125 0
-76 -82 129 -103 0
-77 -78 129 -109 0
-73 -79 129 -121 0
-74 -80 129 -124 0
-75 -81 129 -102 0
-133 -130 99 0
-137 -130 93 0
-134 -130 94 0
-135 -130 116 0
-136 -130 112 0
-78 -131 99 0
-82 -131 93 0
-79 -131 94 0
-80 -131 116 0
-81 -131 101 0
-76 132 -112 0
-145 73 -78 0
-145 -73 78 0
-145 74 -79 0
-145 -74 79 0
-145 75 -80 0
-145 -75 80 0
-145 77 -82 0
-145 -77 82 0
-73 -78 145 0
-74 -79 145 0
-75 -80 145 0
-77 -82 145 0
-76 -145 0
-81 -145 0
-43 -132 145 0
-43 126 0
-43 128 0
-146 78 -83 0
-146 -78 83 0
-146 79 -88 0
-146 -79 88 0
-146 80 -85 0
-146 -80 85 0
-146 81 -89 0
-146 -81 89 0
-146 82 -86 0
-146 -82 86 0
-78 -83 146 0
-79 -88 146 0
-80 -85 146 0
-81 -89 146 0
-82 -86 146 0
-87 -146 0
-84 -146 0
-43 -129 146 0
-147 83 -73 0
-147 -83 73 0
-147 88 -74 0
-147 -88 74 0
-147 85 -75 0
-147 -85 75 0
-147 86 -77 0
-147 -86 77 0
-83 -73 147 0
-88 -74 147 0
-85 -75 147 0
-86 -77 147 0
-87 -147 0
-84 -147 0
-89 -147 0
-76 -147 0
-148 83 -78 0
-148 -83 78 0
-148 88 -79 0
-148 -88 79 0
-148 85 -80 0
-148 -85 80 0
-148 89 -81 0
-148 -89 81 0
-148 86 -82 0
-148 -86 82 0
-83 -78 148 0
-88 -79 148 0
-85 -80 148 0
-89 -81 148 0
-86 -82 148 0
-87 -148 0
-84 -148 0
-43 -127 147 0
-43 131 0
-90 142 0
-90 -137 -141 0
-90 -135 -141 0
-90 -135 -138 0
-90 -135 -143 0
-90 -135 -140 0
-90 -133 -141 0
-90 -133 -138 0
-90 -134 -141 0
-90 -134 -138 0
-90 -134 -143 0
-39 90 91 0
-90 39 0
-91 39 0
-93 151 -92 0
93 -151 -92 0
-94 152 -92 0
94 -152 -92 0
-95 153 -92 0
95 -153 -92 0
-96 154 -92 0
96 -154 -92 0
-97 155 -92 0
97 -155 -92 0
-98 156 -92 0
98 -156 -92 0
-99 157 -92 0
99 -157 -92 0
-100 158 -92 0
100 -158 -92 0
-101 159 -92 0
101 -159 -92 0
-102 160 -92 0
102 -160 -92 0
-103 10 -92 0
103 -10 -92 0
-104 161 -92 0
104 -161 -92 0
-105 162 -92 0
105 -162 -92 0
-106 163 -92 0
106 -163 -92 0
-107 164 -92 0
107 -164 -92 0
-108 165 -92 0
108 -165 -92 0
-109 11 -92 0
109 -11 -92 0
-110 166 -92 0
110 -166 -92 0
-111 167 -92 0
111 -167 -92 0
-112 168 -92 0
112 -168 -92 0
-113 169 -92 0
113 -169 -92 0
-114 170 -92 0
114 -170 -92 0
-115 171 -92 0
115 -171 -92 0
-116 172 -92 0
116 -172 -92 0
-117 12 -92 0
117 -12 -92 0
-118 173 -92 0
118 -173 -92 0
-119 174 -92 0
119 -174 -92 0
-120 175 -92 0
120 -175 -92 0
-121 13 -92 0
121 -13 -92 0
-122 176 -92 0
122 -176 -92 0
-123 177 -92 0
123 -177 -92 0
-124 14 -92 0
124 -14 -92 0
-125 178 -92 0
125 -178 -92 0
-41 149 0
-149 41 0
a 92 0
